c FILE: i160-205

c SOURCE: From steinlib

c DESCRIPTION: Steinlib instance with 160 nodes and 240 edges.

p edge 160 240
e 1 11
e 1 44
e 1 56
e 1 61
e 1 115
e 1 128
e 2 10
e 2 45
e 2 61
e 2 118
e 2 157
e 3 40
e 3 101
e 4 80
e 4 83
e 4 91
e 4 128
e 4 150
e 5 14
e 5 123
e 6 32
e 6 110
e 7 9
e 7 17
e 7 51
e 8 15
e 8 60
e 8 138
e 9 66
e 9 96
e 11 42
e 11 96
e 12 42
e 12 55
e 13 23
e 13 70
e 13 94
e 13 137
e 13 148
e 14 155
e 14 158
e 15 18
e 15 60
e 15 61
e 15 74
e 15 81
e 15 84
e 15 89
e 15 99
e 15 103
e 16 45
e 16 86
e 16 120
e 16 132
e 17 133
e 18 100
e 18 107
e 19 137
e 19 142
e 19 155
e 20 50
e 20 77
e 20 110
e 21 63
e 21 102
e 22 135
e 23 66
e 24 64
e 24 84
e 25 49
e 25 66
e 25 114
e 25 152
e 26 42
e 26 88
e 26 130
e 27 55
e 27 60
e 27 61
e 27 97
e 28 31
e 28 54
e 28 96
e 29 103
e 29 160
e 30 116
e 31 60
e 32 137
e 33 64
e 33 156
e 34 86
e 34 137
e 35 57
e 36 50
e 36 149
e 37 52
e 37 89
e 38 140
e 39 105
e 39 149
e 40 47
e 40 51
e 40 54
e 40 59
e 40 75
e 41 66
e 42 79
e 42 105
e 42 124
e 43 115
e 43 141
e 44 82
e 45 118
e 46 86
e 46 154
e 47 61
e 47 76
e 47 94
e 47 136
e 47 157
e 47 158
e 48 61
e 49 103
e 50 57
e 50 108
e 50 140
e 50 150
e 51 74
e 53 140
e 54 67
e 54 155
e 55 113
e 55 149
e 55 154
e 57 87
e 58 76
e 58 112
e 58 122
e 58 135
e 58 160
e 59 93
e 59 141
e 60 90
e 60 132
e 61 68
e 61 74
e 61 108
e 61 118
e 61 135
e 61 137
e 62 82
e 62 98
e 63 73
e 63 103
e 64 92
e 64 108
e 64 122
e 64 133
e 65 102
e 65 120
e 65 133
e 66 93
e 66 142
e 66 152
e 67 109
e 68 116
e 69 132
e 70 76
e 70 91
e 71 128
e 72 139
e 73 111
e 74 94
e 74 110
e 75 92
e 75 99
e 76 89
e 77 79
e 77 90
e 77 121
e 77 158
e 78 146
e 78 150
e 79 131
e 81 94
e 82 132
e 83 139
e 85 115
e 86 104
e 87 132
e 88 122
e 89 159
e 91 99
e 92 126
e 93 144
e 93 157
e 94 103
e 94 120
e 95 124
e 95 126
e 96 147
e 97 116
e 97 117
e 97 134
e 97 140
e 98 108
e 100 117
e 100 132
e 101 122
e 101 125
e 103 122
e 104 108
e 104 155
e 106 121
e 111 116
e 111 149
e 112 138
e 113 117
e 116 149
e 118 144
e 119 138
e 121 132
e 121 149
e 123 130
e 123 146
e 125 155
e 126 138
e 127 143
e 127 145
e 128 156
e 129 144
e 130 150
e 130 151
e 131 142
e 133 138
e 139 152
e 143 149
e 147 154
e 149 153
e 156 160
